5 5
3 38 1 96 2 92 0 81 4 95
0 8 4 25 2 73 1 66 3 79
2 50 4 67 1 49 3 36 0 68
3 78 1 41 2 89 4 62 0 10
2 21 4 36 0 12 1 91 3 2
-1
0 1 4 5
0 2 5
0 2 5
0 2 4 5
0 1 3 4 5
-2
53 398 405
49 380
155 373
171 395 390
24 91 229 172

474 6
5 22 3 14 19
1 23 16 12 8
20 10 2 7 17
0 15 13 9 24
6 21 11 4 18
